\ENCODING=ISO-8859-1
\Problem name: config2

Maximize
 obj: 4.2 a + 3 b + 2.3 c
Subject To
 cons01: 67 a + 50 b + 35 c <= 1500
 cons02: a + b + c <= 30
 cons03: 1.66666666666667 a + 1.33333333333333 b + c <= 40
 cons04: a >= 0
 cons05: b >= 0
 cons06: c >= 0
Bounds
      a Free
      b Free
      c Free
End
